benchmarks/bfuzz0/21370303431641247092504328234158458450.smt2
(set-logic QF_FP)
(declare-const x0 (_ FloatingPoint 11 53))
(declare-const x1 (_ FloatingPoint 11 53))
(declare-const x2 (_ FloatingPoint 11 53))
(declare-const x3 (_ FloatingPoint 11 53))
(declare-const x4 (_ FloatingPoint 11 53))
(declare-const x5 (_ FloatingPoint 11 53))
(assert (fp.geq (fp.sub RNE x0 x3) (fp.neg x5)))
(assert (fp.leq (fp.sub RNE x1 x1) (fp.add RNE x0 x0)))
(assert (fp.geq (fp.add RNE x1 x3) (fp.neg x2)))
(check-sat)
