db/data/21370303431641247092504328234158458450.z3.out
sat
-------------------
45.611205265
